1226
158
336
630
38
101
1067
604
684
570
554
368
522
175
208
43
444
67
374
322
220
876
259
1040
210
50
276
793
47
922
39
46
377
210
172
203
269
90
883
15
938
43
420
382
622
244
313
113
454
444
489
565
840
499
96
635
60
298
613
383
96
45
424
898
528
301
545
176
32
105
329
76
322
1102
178
936
191
837
50
123
220
523
270
845
13
29
272
663
427
172
599
181
681
31
122
92
267
353
17
113
